# Objective value = 41
WA1n 0
WA1p 0
WA2n 0
WA2p 1
WB1n 0
WB1p 0
WB2n 0
WB2p 1
WC1n 1
WC1p 0
WD1n 0
WD1p 1
WD2n 0
WD2p 1
WE1n 0
WE1p 2
WE2n 0
WE2p 1
WF1n 4
WF1p 0
WG1n 0
WG1p 4
WH1n 0
WH1p 4
WI1n 14
WI1p 0
WI2n 1
WI2p 0
WT1n 1
WT1p 0
5 7
a 0
b 1
c 0
d 1
e 0
f 1
g 1
h 1
i 1
j 0
k 1
l 1
m 0
n 0
o 0
